(set-info :source |printed by MathSAT|)
(declare-fun |.x{1}| () Int)
(declare-fun |.x{491}| () Int)
(declare-fun |.x{2}| () (Array Int (Array Int Int)))
(declare-fun |.x{492}| () (Array Int (Array Int Int)))
(declare-fun |.x{3}| () (Array Int (Array Int Int)))
(declare-fun |.x{493}| () (Array Int (Array Int Int)))
(declare-fun |.x{41}| () (Array Int Int))
(declare-fun |.x{494}| () (Array Int Int))
(declare-fun |.x{5}| () (Array Int Int))
(declare-fun |.x{495}| () (Array Int Int))
(declare-fun |.x{6}| () (Array Int (Array Int Int)))
(declare-fun |.x{496}| () (Array Int (Array Int Int)))
(declare-fun |.x{7}| () (Array Int (Array Int Int)))
(declare-fun |.x{497}| () (Array Int (Array Int Int)))
(declare-fun |.x{45}| () Int)
(declare-fun |.x{498}| () Int)
(declare-fun |.x{9}| () Int)
(declare-fun |.x{499}| () Int)
(declare-fun |.x{10}| () (Array Int Int))
(declare-fun |.x{500}| () (Array Int Int))
(declare-fun |.x{11}| () (Array Int Int))
(declare-fun |.x{501}| () (Array Int Int))
(declare-fun |.x{49}| () Int)
(declare-fun |.x{502}| () Int)
(declare-fun |.x{13}| () Int)
(declare-fun |.x{503}| () Int)
(declare-fun |.x{14}| () (Array Int (Array Int Int)))
(declare-fun |.x{504}| () (Array Int (Array Int Int)))
(declare-fun |.x{15}| () (Array Int (Array Int Int)))
(declare-fun |.x{505}| () (Array Int (Array Int Int)))
(declare-fun |.x{16}| () Int)
(declare-fun |.x{506}| () Int)
(declare-fun |.x{17}| () Int)
(declare-fun |.x{507}| () Int)
(declare-fun |.x{18}| () Int)
(declare-fun |.x{508}| () Int)
(declare-fun |.x{19}| () Int)
(declare-fun |.x{509}| () Int)
(declare-fun |.x{20}| () Int)
(declare-fun |.x{510}| () Int)
(declare-fun |.x{21}| () Int)
(declare-fun |.x{511}| () Int)
(declare-fun |.x{22}| () Int)
(declare-fun |.x{512}| () Int)
(declare-fun |.x{23}| () Int)
(declare-fun |.x{513}| () Int)
(declare-fun |.x{24}| () Int)
(declare-fun |.x{514}| () Int)
(declare-fun |.x{25}| () Int)
(declare-fun |.x{515}| () Int)
(declare-fun |.x{26}| () Int)
(declare-fun |.x{516}| () Int)
(declare-fun |.x{27}| () Int)
(declare-fun |.x{517}| () Int)
(declare-fun |.x{28}| () Int)
(declare-fun |.x{518}| () Int)
(declare-fun |.x{29}| () Int)
(declare-fun |.x{519}| () Int)
(declare-fun |.x{30}| () Int)
(declare-fun |.x{520}| () Int)
(declare-fun |.x{31}| () Int)
(declare-fun |.x{521}| () Int)
(declare-fun |.x{32}| () Int)
(declare-fun |.x{522}| () Int)
(declare-fun |.x{33}| () Int)
(declare-fun |.x{523}| () Int)
(declare-fun |.x{34}| () Int)
(declare-fun |.x{524}| () Int)
(declare-fun |.x{35}| () Int)
(declare-fun |.x{525}| () Int)
(declare-fun |.x{36}| () Int)
(declare-fun |.x{526}| () Int)
(declare-fun |.x{37}| () Bool)
(declare-fun |.x{453}| () Bool)
(declare-fun |.loc{3}| () Bool)
(declare-fun |.loc{5}| () Bool)
(declare-fun |.loc{4}| () Bool)
(declare-fun |.loc{6}| () Bool)
(declare-fun |.x{149}| () (Array Int Int))
(define-fun .def_84 () Bool (! |.loc{4}| :next |.loc{6}|))
(define-fun .def_320 () Bool (not .def_84))
(define-fun .def_82 () Bool (! |.loc{3}| :next |.loc{5}|))
(define-fun .def_91 () Bool (not .def_82))
(define-fun .def_342 () Bool (and .def_91 .def_320))
(define-fun .def_24 () Int (! |.x{9}| :next |.x{499}|))
(define-fun .def_22 () Int (! |.x{45}| :next |.x{498}|))
(define-fun .def_334 () Bool (= .def_22 .def_24))
(define-fun .def_36 () (Array Int (Array Int Int)) (! |.x{15}| :next |.x{505}|))
(define-fun .def_34 () (Array Int (Array Int Int)) (! |.x{14}| :next |.x{504}|))
(define-fun .def_333 () Bool (= .def_34 .def_36))
(define-fun .def_335 () Bool (and .def_333 .def_334))
(define-fun .def_32 () Int (! |.x{13}| :next |.x{503}|))
(define-fun .def_30 () Int (! |.x{49}| :next |.x{502}|))
(define-fun .def_332 () Bool (= .def_30 .def_32))
(define-fun .def_336 () Bool (and .def_332 .def_335))
(define-fun .def_12 () (Array Int (Array Int Int)) (! |.x{3}| :next |.x{493}|))
(define-fun .def_10 () (Array Int (Array Int Int)) (! |.x{2}| :next |.x{492}|))
(define-fun .def_331 () Bool (= .def_10 .def_12))
(define-fun .def_337 () Bool (and .def_331 .def_336))
(define-fun .def_80 () Bool (! |.x{37}| :next |.x{453}|))
(define-fun .def_330 () Bool (not .def_80))
(define-fun .def_338 () Bool (and .def_330 .def_337))
(define-fun .def_28 () (Array Int Int) (! |.x{11}| :next |.x{501}|))
(define-fun .def_26 () (Array Int Int) (! |.x{10}| :next |.x{500}|))
(define-fun .def_329 () Bool (= .def_26 .def_28))
(define-fun .def_339 () Bool (and .def_329 .def_338))
(define-fun .def_20 () (Array Int (Array Int Int)) (! |.x{7}| :next |.x{497}|))
(define-fun .def_18 () (Array Int (Array Int Int)) (! |.x{6}| :next |.x{496}|))
(define-fun .def_328 () Bool (= .def_18 .def_20))
(define-fun .def_340 () Bool (and .def_328 .def_339))
(define-fun .def_16 () (Array Int Int) (! |.x{5}| :next |.x{495}|))
(define-fun .def_14 () (Array Int Int) (! |.x{41}| :next |.x{494}|))
(define-fun .def_327 () Bool (= .def_14 .def_16))
(define-fun .def_341 () Bool (and .def_327 .def_340))
(define-fun .def_343 () Bool (! (and .def_341 .def_342) :init true))
(define-fun .def_324 () Bool (= .def_36 |.x{505}|))
(define-fun .def_322 () Bool (= .def_32 |.x{503}|))
(define-fun .def_318 () Bool (= .def_28 |.x{501}|))
(define-fun .def_316 () Bool (= .def_24 |.x{499}|))
(define-fun .def_314 () Bool (= .def_20 |.x{497}|))
(define-fun .def_312 () Bool (= .def_16 |.x{495}|))
(define-fun .def_8 () Int (! |.x{1}| :next |.x{491}|))
(define-fun .def_310 () Bool (= .def_8 |.x{491}|))
(define-fun .def_309 () Bool (= .def_12 |.x{493}|))
(define-fun .def_311 () Bool (and .def_309 .def_310))
(define-fun .def_313 () Bool (and .def_311 .def_312))
(define-fun .def_315 () Bool (and .def_313 .def_314))
(define-fun .def_317 () Bool (and .def_315 .def_316))
(define-fun .def_319 () Bool (and .def_317 .def_318))
(define-fun .def_321 () Bool (and .def_319 .def_320))
(define-fun .def_323 () Bool (and .def_321 .def_322))
(define-fun .def_325 () Bool (and .def_323 .def_324))
(define-fun .def_305 () Bool (not |.loc{5}|))
(define-fun .def_108 () Bool (= |.x{509}| 0))
(define-fun .def_296 () Bool (or .def_80 .def_108))
(define-fun .def_228 () (Array Int Int) (store |.x{149}| |.x{507}| 1))
(define-fun .def_229 () (Array Int Int) (store .def_228 |.x{518}| 1))
(define-fun .def_246 () Int (select .def_229 |.x{511}|))
(define-fun .def_247 () Bool (= .def_246 0))
(define-fun .def_242 () Bool (= |.x{511}| 0))
(define-fun .def_243 () Bool (not .def_242))
(define-fun .def_239 () Int (select .def_228 |.x{518}|))
(define-fun .def_240 () Bool (= .def_239 0))
(define-fun .def_236 () Bool (= |.x{508}| 0))
(define-fun .def_234 () Bool (= |.x{509}| |.x{520}|))
(define-fun .def_230 () (Array Int Int) (store .def_229 |.x{511}| 1))
(define-fun .def_231 () Bool (= |.x{494}| .def_230))
(define-fun .def_113 () Int (+ |.x{514}| 4))
(define-fun .def_222 () (Array Int Int) (select |.x{504}| |.x{526}|))
(define-fun .def_223 () Int (select .def_222 .def_113))
(define-fun .def_224 () Bool (= |.x{510}| .def_223))
(define-fun .def_218 () Int (select |.x{149}| |.x{507}|))
(define-fun .def_219 () Bool (= .def_218 0))
(define-fun .def_214 () Bool (= |.x{525}| 4))
(define-fun .def_215 () Int (ite .def_214 1 0))
(define-fun .def_216 () Bool (= |.x{520}| .def_215))
(define-fun .def_211 () Bool (= |.x{518}| 0))
(define-fun .def_212 () Bool (not .def_211))
(define-fun .def_184 () Int (+ |.x{510}| 4))
(define-fun .def_206 () (Array Int Int) (select |.x{504}| |.x{524}|))
(define-fun .def_207 () Int (select .def_206 .def_184))
(define-fun .def_208 () Bool (= |.x{519}| .def_207))
(define-fun .def_204 () Bool (= |.x{516}| 0))
(define-fun .def_202 () Bool (= |.x{511}| |.x{526}|))
(define-fun .def_198 () (Array Int Int) (select |.x{496}| |.x{521}|))
(define-fun .def_199 () Int (select .def_198 |.x{519}|))
(define-fun .def_200 () Bool (= |.x{525}| .def_199))
(define-fun .def_194 () Bool (= |.x{507}| 0))
(define-fun .def_195 () Bool (not .def_194))
(define-fun .def_190 () (Array Int Int) (select |.x{492}| |.x{526}|))
(define-fun .def_191 () Int (select .def_190 .def_113))
(define-fun .def_192 () Bool (= |.x{524}| .def_191))
(define-fun .def_185 () (Array Int Int) (select |.x{492}| |.x{524}|))
(define-fun .def_186 () Int (select .def_185 .def_184))
(define-fun .def_187 () Bool (= |.x{521}| .def_186))
(define-fun .def_181 () Bool (= |.x{506}| 0))
(define-fun .def_179 () Bool (= |.x{514}| |.x{516}|))
(define-fun .def_175 () Bool (<= |.x{491}| |.x{518}|))
(define-fun .def_176 () Bool (not .def_175))
(define-fun .def_173 () Bool (<= |.x{491}| |.x{511}|))
(define-fun .def_174 () Bool (not .def_173))
(define-fun .def_177 () Bool (and .def_174 .def_176))
(define-fun .def_114 () (Array Int Int) (select .def_34 |.x{526}|))
(define-fun .def_115 () Int (select .def_114 .def_113))
(define-fun .def_120 () Int (+ .def_115 4))
(define-fun .def_117 () (Array Int Int) (select .def_10 |.x{526}|))
(define-fun .def_118 () Int (select .def_117 .def_113))
(define-fun .def_119 () (Array Int Int) (select .def_34 .def_118))
(define-fun .def_121 () Int (select .def_119 .def_120))
(define-fun .def_122 () (Array Int Int) (select .def_10 .def_118))
(define-fun .def_123 () Int (select .def_122 .def_120))
(define-fun .def_167 () (Array Int Int) (select |.x{492}| .def_123))
(define-fun .def_168 () Int (select .def_167 .def_121))
(define-fun .def_169 () (Array Int Int) (select .def_10 .def_123))
(define-fun .def_170 () (Array Int Int) (store .def_169 .def_121 .def_168))
(define-fun .def_171 () (Array Int (Array Int Int)) (store .def_10 .def_123 .def_170))
(define-fun .def_172 () Bool (= |.x{492}| .def_171))
(define-fun .def_178 () Bool (and .def_172 .def_177))
(define-fun .def_180 () Bool (and .def_178 .def_179))
(define-fun .def_182 () Bool (and .def_180 .def_181))
(define-fun .def_134 () Int (+ |.x{516}| 4))
(define-fun .def_164 () (Array Int Int) (select .def_10 |.x{511}|))
(define-fun .def_165 () Int (select .def_164 .def_134))
(define-fun .def_166 () Bool (= |.x{518}| .def_165))
(define-fun .def_183 () Bool (and .def_166 .def_182))
(define-fun .def_188 () Bool (and .def_183 .def_187))
(define-fun .def_162 () Bool (<= |.x{491}| |.x{507}|))
(define-fun .def_163 () Bool (not .def_162))
(define-fun .def_189 () Bool (and .def_163 .def_188))
(define-fun .def_193 () Bool (and .def_189 .def_192))
(define-fun .def_196 () Bool (and .def_193 .def_195))
(define-fun .def_159 () (Array Int Int) (select .def_18 |.x{511}|))
(define-fun .def_160 () Int (select .def_159 |.x{516}|))
(define-fun .def_161 () Bool (= .def_160 1))
(define-fun .def_197 () Bool (and .def_161 .def_196))
(define-fun .def_201 () Bool (and .def_197 .def_200))
(define-fun .def_203 () Bool (and .def_201 .def_202))
(define-fun .def_205 () Bool (and .def_203 .def_204))
(define-fun .def_209 () Bool (and .def_205 .def_208))
(define-fun .def_147 () Int (+ |.x{508}| 4))
(define-fun .def_155 () (Array Int Int) (select .def_34 |.x{518}|))
(define-fun .def_156 () Int (select .def_155 .def_147))
(define-fun .def_157 () Bool (= |.x{506}| .def_156))
(define-fun .def_210 () Bool (and .def_157 .def_209))
(define-fun .def_213 () Bool (and .def_210 .def_212))
(define-fun .def_217 () Bool (and .def_213 .def_216))
(define-fun .def_220 () Bool (and .def_217 .def_219))
(define-fun .def_152 () (Array Int Int) (select .def_18 |.x{507}|))
(define-fun .def_153 () Int (select .def_152 |.x{506}|))
(define-fun .def_154 () Bool (= .def_153 3))
(define-fun .def_221 () Bool (and .def_154 .def_220))
(define-fun .def_225 () Bool (and .def_221 .def_224))
(define-fun .def_148 () (Array Int Int) (select .def_10 |.x{518}|))
(define-fun .def_149 () Int (select .def_148 .def_147))
(define-fun .def_150 () Bool (= |.x{507}| .def_149))
(define-fun .def_226 () Bool (and .def_150 .def_225))
(define-fun .def_143 () (Array Int Int) (store .def_26 |.x{507}| 4))
(define-fun .def_144 () (Array Int Int) (store .def_143 |.x{518}| 8))
(define-fun .def_145 () (Array Int Int) (store .def_144 |.x{511}| 8))
(define-fun .def_146 () Bool (= |.x{500}| .def_145))
(define-fun .def_227 () Bool (and .def_146 .def_226))
(define-fun .def_232 () Bool (and .def_227 .def_231))
(define-fun .def_138 () (Array Int Int) (select .def_18 .def_123))
(define-fun .def_139 () (Array Int Int) (store .def_138 .def_121 4))
(define-fun .def_140 () (Array Int (Array Int Int)) (store .def_18 .def_123 .def_139))
(define-fun .def_141 () Bool (= |.x{496}| .def_140))
(define-fun .def_233 () Bool (and .def_141 .def_232))
(define-fun .def_235 () Bool (and .def_233 .def_234))
(define-fun .def_237 () Bool (and .def_235 .def_236))
(define-fun .def_135 () (Array Int Int) (select .def_34 |.x{511}|))
(define-fun .def_136 () Int (select .def_135 .def_134))
(define-fun .def_137 () Bool (= |.x{508}| .def_136))
(define-fun .def_238 () Bool (and .def_137 .def_237))
(define-fun .def_241 () Bool (and .def_238 .def_240))
(define-fun .def_244 () Bool (and .def_241 .def_243))
(define-fun .def_131 () (Array Int Int) (select .def_18 |.x{518}|))
(define-fun .def_132 () Int (select .def_131 |.x{508}|))
(define-fun .def_133 () Bool (= .def_132 2))
(define-fun .def_245 () Bool (and .def_133 .def_244))
(define-fun .def_248 () Bool (and .def_245 .def_247))
(define-fun .def_124 () (Array Int Int) (select |.x{504}| .def_123))
(define-fun .def_125 () Int (select .def_124 .def_121))
(define-fun .def_126 () (Array Int Int) (select .def_34 .def_123))
(define-fun .def_127 () (Array Int Int) (store .def_126 .def_121 .def_125))
(define-fun .def_128 () (Array Int (Array Int Int)) (store .def_34 .def_123 .def_127))
(define-fun .def_129 () Bool (= |.x{504}| .def_128))
(define-fun .def_249 () Bool (and .def_129 .def_248))
(define-fun .def_294 () Bool (or .def_80 .def_249))
(define-fun .def_99 () (Array Int Int) (store .def_14 0 0))
(define-fun .def_100 () Bool (= |.x{149}| .def_99))
(define-fun .def_96 () Bool (= |.x{498}| 0))
(define-fun .def_95 () Bool (= |.x{502}| 0))
(define-fun .def_97 () Bool (and .def_95 .def_96))
(define-fun .def_101 () Bool (and .def_97 .def_100))
(define-fun .def_102 () Bool (or .def_80 .def_101))
(define-fun .def_295 () Bool (and .def_102 .def_294))
(define-fun .def_297 () Bool (and .def_295 .def_296))
(define-fun .def_298 () Bool (and .def_91 .def_297))
(define-fun .def_299 () Bool (and |.x{453}| .def_298))
(define-fun .def_300 () Bool (and |.x{453}| .def_299))
(define-fun .def_50 () Int (! |.x{22}| :next |.x{512}|))
(define-fun .def_86 () Bool (= .def_50 |.x{512}|))
(define-fun .def_301 () Bool (and .def_86 .def_300))
(define-fun .def_302 () Bool (and .def_86 .def_301))
(define-fun .def_48 () Int (! |.x{21}| :next |.x{511}|))
(define-fun .def_62 () Int (! |.x{28}| :next |.x{518}|))
(define-fun .def_40 () Int (! |.x{17}| :next |.x{507}|))
(define-fun .def_287 () (Array Int Int) (store .def_14 .def_40 0))
(define-fun .def_288 () (Array Int Int) (store .def_287 .def_62 0))
(define-fun .def_289 () (Array Int Int) (store .def_288 .def_48 0))
(define-fun .def_290 () Bool (= |.x{494}| .def_289))
(define-fun .def_286 () Bool (= |.x{515}| 0))
(define-fun .def_291 () Bool (and .def_286 .def_290))
(define-fun .def_292 () Bool (or .def_80 .def_291))
(define-fun .def_284 () Bool (= .def_10 |.x{492}|))
(define-fun .def_282 () Bool (= .def_18 |.x{496}|))
(define-fun .def_280 () Bool (= .def_22 |.x{498}|))
(define-fun .def_277 () Bool (= .def_26 |.x{500}|))
(define-fun .def_275 () Bool (= .def_30 |.x{502}|))
(define-fun .def_273 () Bool (= .def_34 |.x{504}|))
(define-fun .def_44 () Int (! |.x{19}| :next |.x{509}|))
(define-fun .def_271 () Bool (= .def_44 |.x{509}|))
(define-fun .def_52 () Int (! |.x{23}| :next |.x{513}|))
(define-fun .def_269 () Bool (= .def_52 |.x{513}|))
(define-fun .def_54 () Int (! |.x{24}| :next |.x{514}|))
(define-fun .def_267 () Bool (= .def_54 |.x{514}|))
(define-fun .def_60 () Int (! |.x{27}| :next |.x{517}|))
(define-fun .def_265 () Bool (= .def_60 |.x{517}|))
(define-fun .def_66 () Int (! |.x{30}| :next |.x{520}|))
(define-fun .def_263 () Bool (= .def_66 |.x{520}|))
(define-fun .def_70 () Int (! |.x{32}| :next |.x{522}|))
(define-fun .def_261 () Bool (= .def_70 |.x{522}|))
(define-fun .def_72 () Int (! |.x{33}| :next |.x{523}|))
(define-fun .def_259 () Bool (= .def_72 |.x{523}|))
(define-fun .def_78 () Int (! |.x{36}| :next |.x{526}|))
(define-fun .def_257 () Bool (= .def_78 |.x{526}|))
(define-fun .def_254 () Bool (= |.x{512}| |.x{515}|))
(define-fun .def_255 () Bool (or |.x{453}| .def_254))
(define-fun .def_104 () Bool (= .def_80 |.x{453}|))
(define-fun .def_256 () Bool (and .def_104 .def_255))
(define-fun .def_258 () Bool (and .def_256 .def_257))
(define-fun .def_260 () Bool (and .def_258 .def_259))
(define-fun .def_262 () Bool (and .def_260 .def_261))
(define-fun .def_264 () Bool (and .def_262 .def_263))
(define-fun .def_266 () Bool (and .def_264 .def_265))
(define-fun .def_268 () Bool (and .def_266 .def_267))
(define-fun .def_270 () Bool (and .def_268 .def_269))
(define-fun .def_272 () Bool (and .def_270 .def_271))
(define-fun .def_274 () Bool (and .def_272 .def_273))
(define-fun .def_276 () Bool (and .def_274 .def_275))
(define-fun .def_278 () Bool (and .def_276 .def_277))
(define-fun .def_279 () Bool (and .def_82 .def_278))
(define-fun .def_281 () Bool (and .def_279 .def_280))
(define-fun .def_283 () Bool (and .def_281 .def_282))
(define-fun .def_285 () Bool (and .def_283 .def_284))
(define-fun .def_293 () Bool (and .def_285 .def_292))
(define-fun .def_303 () Bool (or .def_293 .def_302))
(define-fun .def_304 () Bool (and |.loc{6}| .def_303))
(define-fun .def_306 () Bool (and .def_304 .def_305))
(define-fun .def_250 () Bool (or |.x{453}| .def_249))
(define-fun .def_109 () Bool (not .def_108))
(define-fun .def_110 () Bool (or |.x{453}| .def_109))
(define-fun .def_105 () Bool (and .def_86 .def_104))
(define-fun .def_89 () Bool (not |.loc{6}|))
(define-fun .def_106 () Bool (and .def_89 .def_105))
(define-fun .def_107 () Bool (and .def_91 .def_106))
(define-fun .def_111 () Bool (and .def_107 .def_110))
(define-fun .def_251 () Bool (and .def_111 .def_250))
(define-fun .def_252 () Bool (and |.loc{5}| .def_251))
(define-fun .def_253 () Bool (and .def_102 .def_252))
(define-fun .def_307 () Bool (or .def_253 .def_306))
(define-fun .def_87 () Bool (and .def_80 .def_86))
(define-fun .def_88 () Bool (and |.x{453}| .def_87))
(define-fun .def_90 () Bool (and .def_88 .def_89))
(define-fun .def_92 () Bool (and .def_90 .def_91))
(define-fun .def_93 () Bool (and |.loc{5}| .def_92))
(define-fun .def_103 () Bool (and .def_93 .def_102))
(define-fun .def_308 () Bool (or .def_103 .def_307))
(define-fun .def_326 () Bool (! (and .def_308 .def_325) :trans true))
(define-fun .def_74 () Int (! |.x{34}| :next |.x{524}|))
(define-fun .def_76 () Int (! |.x{35}| :next |.x{525}|))
(define-fun .def_38 () Int (! |.x{16}| :next |.x{506}|))
(define-fun .def_42 () Int (! |.x{18}| :next |.x{508}|))
(define-fun .def_46 () Int (! |.x{20}| :next |.x{510}|))
(define-fun .def_56 () Int (! |.x{25}| :next |.x{515}|))
(define-fun .def_58 () Int (! |.x{26}| :next |.x{516}|))
(define-fun .def_64 () Int (! |.x{29}| :next |.x{519}|))
(define-fun .def_68 () Int (! |.x{31}| :next |.x{521}|))
(define-fun .def_344 () Bool (and .def_84 .def_91))
(define-fun .def_345 () Bool (and .def_80 .def_344))
(define-fun .def_346 () Bool (! (not .def_345) :invar-property 0))
(assert true)
